num_subjects = 60;
num_precedences = 49;
num_simultaneo = 4;
num_electivas1 = 2;
num_electivas2 = 2;

creditos = [
1,2,5,3,5,2,1,2,4,5,3,4,2,4,4,3,4,2,3,4,4,2,3,3,2,3,4,3,2,3,
5,4,4,3,3,2,4,4,3,4,4,3,3,5,3,2,3,4,4,3,3,2,1,3,3,6,3,3,3,3
];

precedence = array2d(1..49,1..2, [
1,7, 4,16, 3,10, 3,9, 3,8, 3,11, 6,18, 5,12,
10,15, 10,14, 10,25, 10,13, 12,17, 12,24,
16,31, 14,21, 14,20, 14,19, 13,22, 24,35,
11,35, 15,21, 15,23, 15,34, 15,29, 23,39,
23,35, 21,39, 20,27, 19,26, 31,42, 17,30,
17,37, 30,40, 29,36, 27,33, 33,38, 37,41,
38,47, 39,43, 40,44, 41,48, 47,49,
45,50, 41,51, 41,52, 48,55, 50,54,
52,56
]);

simultaneo = array2d(1..4,1..2, [
9,8,
14,13,
20,19,
21,22
]);

electivas1 = array2d(1..2,1..2, [
57,0,
58,0
]);

electivas2 = array2d(1..2,1..2, [
59,0,
60,0
]);