S=5;
start = [|
 1, 0, 0, 4, 0,     0, 7, 0, 9, 0,     11, 0, 13, 0, 15,   0, 17, 0, 19, 0,   21, 0, 23, 0, 25
| 0, 7, 0, 0, 10,    11, 0, 13, 0, 15,  0, 17, 0, 19, 0,    21, 0, 23, 0, 25,  0, 2, 0, 4, 0
|11, 0, 13, 0, 15,   0, 17, 0, 19, 0,   21, 0, 23, 0, 25,   0, 2, 0, 4, 0,     6, 0, 8, 0, 10
| 0, 17, 0, 19, 0,   21, 0, 23, 0, 25,  0, 2, 0, 4, 0,      6, 0, 8, 0, 10,    0, 12, 0, 14, 0
|21, 0, 23, 0, 25,   0, 2, 0, 4, 0, 6,  0, 8, 0, 10, 0,     12, 0, 14, 0,      16, 0, 18, 0, 20

| 0, 3, 0, 5, 0,     7, 0, 9, 0, 11,    0, 13, 0, 15, 0,    17, 0, 19, 0, 21,  0, 23, 0, 25, 0
| 7, 0, 9, 0, 11,    0, 13, 0, 15, 0,   17, 0, 19, 0, 21,   0, 23, 0, 25, 0,   2, 0, 4, 0, 6
| 0, 13, 0, 15, 0,   17, 0, 19, 0, 21,  0, 23, 0, 25, 0,    2, 0, 4, 0, 6,     0, 8, 0, 10, 0
|17, 0, 19, 0, 21,   0, 23, 0, 25, 0,   2, 0, 4, 0, 6,      0, 8, 0, 10, 0,    12, 0, 14, 0, 16
| 0, 23, 0, 25, 0,   2, 0, 4, 0, 6,     0, 8, 0, 10, 0,     12, 0, 14, 0, 16,  0, 18, 0, 20, 0

| 3, 0, 5, 0, 7,     0, 9, 0, 11, 0,    13, 0, 15, 0, 17,   0, 19, 0, 21, 0,   23, 0, 25, 0, 2
| 0, 9, 0, 11, 0,    13, 0, 15, 0, 17,  0, 19, 0, 21, 0,    23, 0, 25, 0, 2,   0, 4, 0, 6, 0
| 13, 0, 15, 0, 17,  0, 19, 0, 21, 0,   23, 0, 25, 0, 2,    0, 4, 0, 6, 0,     8, 0, 10, 0, 12
| 0, 19, 0, 21, 0,   23, 0, 25, 0, 2,   0, 4, 0, 6, 0,      8, 0, 10, 0, 12,   0, 14, 0, 16, 0
| 23, 0, 25, 0, 2,   0, 4, 0, 6, 0,     8, 0, 10, 0, 12,    0, 14, 0, 16, 0,   18, 0, 20, 0, 22

| 0, 5, 0, 7, 0,     9, 0, 11, 0, 13,   0, 15, 0, 17, 0,    19, 0, 21, 0, 23,  0, 25, 0, 2, 0
| 9, 0, 11, 0, 13,   0, 15, 0, 17, 0,   19, 0, 21, 0, 23,   0, 25, 0, 2, 0,    4, 0, 6, 0, 8
| 0, 15, 0, 17, 0,   19, 0, 21, 0, 23,  0, 25, 0, 2, 0,     4, 0, 6, 0, 8,     0, 10, 0, 12, 0
| 19, 0, 21, 0, 23,  0, 25, 0, 2, 0,    4, 0, 6, 0, 8,      0, 10, 0, 12, 0,   14, 0, 16, 0, 18
| 0, 25, 0, 2, 0,    4, 0, 6, 0, 8,     0, 10, 0, 12, 0,    14, 0, 16, 0, 18,  0, 20, 0, 22, 0

| 5, 0, 7, 0, 9,     10, 0, 12, 0, 14,  15, 0, 17, 0, 19,   20, 0, 22, 0, 24,  25, 0, 2, 0, 4
| 0, 11, 0, 13, 0,   15, 0, 17, 0, 19,  0, 21, 0, 23, 0,    25, 0, 2, 0, 4,    0, 6, 0, 8, 0
| 15, 0, 17, 0, 19,  20, 0, 22, 0, 24,  25, 0, 2, 0, 4,     5, 0, 7, 0, 9,     10, 0, 12, 0, 14
| 0, 21, 0, 23, 0,   25, 0, 2, 0, 4,    0, 6, 0, 8, 0,      10, 0, 12, 0, 14,  0, 16, 0, 18, 0
| 25, 0, 2, 0, 4,    5, 0, 7, 0, 9,     10, 0, 12, 0, 14,   15, 0, 17, 0, 19,  20, 0, 22, 0, 24|];