/*
ITEMS = {AXES, SWORD, PIKE, SPEAR, CLUB};
profit = [11.0, 18.0, 15.0, 17.0, 11.0];
RESOURCES = {IRON, WOOD, SMITH, CARPENTER};
capacity = [5000,7500,4000,3000];
consumption = [| 1.5, 1.0, 1.0, 1.0
               | 2.0, 0.0, 2.0, 0.0
               | 1.5, 0.5, 1.0, 1.0
               | 0.5, 1.0, 0.9, 1.5
               | 0.1, 2.5, 0.1, 2.5 |];
*/

% Items (products)
ITEMS = {CROISSANT, MUFFIN, BAGEL, BREAD, DANISH};

% Profit per unit ($)
profit = [2.5, 3.0, 1.5, 4.0, 3.5];

% Resources
RESOURCES = {FLOUR, SUGAR, BUTTER, LABOR};

% Daily availability of each resource
capacity = [10000, 3000, 2000, 80];

% Units of each resource required per product
consumption = [| 50, 10, 20, 0.5  
               | 40, 15, 10, 0.3  
               | 60, 5, 5, 0.4    
               | 200, 20, 15, 1.0 
               | 70, 20, 25, 0.6  
               |];